Optimize a model with 48 rows, 22 columns and 136 nonzeros
Variable types: 7 continuous, 15 integer (15 binary)
Coefficient statistics:
  Matrix range     [1e+00, 1e+01]
  Objective range  [1e+00, 2e+00]
  Bounds range     [1e+00, 1e+00]
  RHS range        [1e+00, 1e+01]
Found heuristic solution: objective 2.0000000
Presolve removed 48 rows and 22 columns
Presolve time: 0.00s
Presolve: All rows and columns removed

Explored 0 nodes (0 simplex iterations) in 0.01 seconds
Thread count was 1 (of 12 available processors)

Solution count 1: 2 

Optimal solution found (tolerance 1.00e-04)
Best objective 2.000000000000e+00, best bound 2.000000000000e+00, gap 0.0000%
Parameter OutputFlag unchanged
   Value: 1  Min: 0  Max: 1  Default: 1
Parameter Heuristics unchanged
   Value: 1.0  Min: 0.0  Max: 1.0  Default: 0.05
Parameter OutputFlag unchanged
   Value: 1  Min: 0  Max: 1  Default: 1
Parameter Heuristics unchanged
   Value: 1.0  Min: 0.0  Max: 1.0  Default: 0.05
Parameter OutputFlag unchanged
   Value: 1  Min: 0  Max: 1  Default: 1
Parameter Heuristics unchanged
   Value: 1.0  Min: 0.0  Max: 1.0  Default: 0.05
Parameter OutputFlag unchanged
   Value: 1  Min: 0  Max: 1  Default: 1
Parameter Heuristics unchanged
   Value: 1.0  Min: 0.0  Max: 1.0  Default: 0.05
Parameter OutputFlag unchanged
   Value: 1  Min: 0  Max: 1  Default: 1
Parameter Heuristics unchanged
   Value: 1.0  Min: 0.0  Max: 1.0  Default: 0.05
Parameter OutputFlag unchanged
   Value: 1  Min: 0  Max: 1  Default: 1
Parameter Heuristics unchanged
   Value: 1.0  Min: 0.0  Max: 1.0  Default: 0.05
Parameter OutputFlag unchanged
   Value: 1  Min: 0  Max: 1  Default: 1
Parameter Heuristics unchanged
   Value: 1.0  Min: 0.0  Max: 1.0  Default: 0.05
Parameter OutputFlag unchanged
   Value: 1  Min: 0  Max: 1  Default: 1
Parameter Heuristics unchanged
   Value: 1.0  Min: 0.0  Max: 1.0  Default: 0.05
Parameter OutputFlag unchanged
   Value: 1  Min: 0  Max: 1  Default: 1
Parameter Heuristics unchanged
   Value: 1.0  Min: 0.0  Max: 1.0  Default: 0.05
Parameter OutputFlag unchanged
   Value: 1  Min: 0  Max: 1  Default: 1
Parameter Heuristics unchanged
   Value: 1.0  Min: 0.0  Max: 1.0  Default: 0.05
Parameter OutputFlag unchanged
   Value: 1  Min: 0  Max: 1  Default: 1
Parameter Heuristics unchanged
   Value: 1.0  Min: 0.0  Max: 1.0  Default: 0.05
Parameter OutputFlag unchanged
   Value: 1  Min: 0  Max: 1  Default: 1
Parameter Heuristics unchanged
   Value: 1.0  Min: 0.0  Max: 1.0  Default: 0.05
Parameter OutputFlag unchanged
   Value: 1  Min: 0  Max: 1  Default: 1
Parameter Heuristics unchanged
   Value: 1.0  Min: 0.0  Max: 1.0  Default: 0.05
Parameter OutputFlag unchanged
   Value: 1  Min: 0  Max: 1  Default: 1
Parameter Heuristics unchanged
   Value: 1.0  Min: 0.0  Max: 1.0  Default: 0.05
Parameter OutputFlag unchanged
   Value: 1  Min: 0  Max: 1  Default: 1
Parameter Heuristics unchanged
   Value: 1.0  Min: 0.0  Max: 1.0  Default: 0.05
